0 0 0 0
0 1 0 0
0 2 1 0
0 3 0 0
0 4 0 2
0 5 2 2
0 6 0 5
0 7 0 5
0 8 0 2
0 9 0 6
0 10 0 2
0 11 2 8
0 12 1 10
0 13 1 2
0 14 0 9
0 15 0 8
0 16 0 13
0 17 0 10
0 18 1 10
0 19 0 16
0 20 0 16
0 21 0 14
0 22 0 18
0 23 1 18
0 24 0 18
0 25 0 24
0 26 0 17
0 27 0 22
0 28 0 26
0 29 0 26
0 30 0 25
0 31 0 30
